c FILE /home/rafael/Documents/HappySet/MIHS/inputs/happygen/output/graph_d_regular_k2_p0.4_v100_20241127_084002.txt
c SOURCE This is a d-regular graph formed for the happy graph colouring problem.
c DESCRIPTION It was generated using the problem generator of Rhyd Lewis
c
c GRAPH STATS
c Seed                             = 1352688069
c Number of Nodes                  = 100
c Number of colours k              = 2
c Number of pre-assignments        = 40
c Degree of all vertices           = 6
c Density                          = 0.0606061
c 
c The degrees of nodes 1 to 100, respectively, are as follows 
c [6, 6, 6, 6, 6, 6, 6, 6, 6, 6, 6, 6, 6, 6, 6, 6, 6, 6, 6, 6, 6, 6, 6, 6, 6, 6, 
c  6, 6, 6, 6, 6, 6, 6, 6, 6, 6, 6, 6, 6, 6, 6, 6, 6, 6, 6, 6, 6, 6, 6, 6, 6, 
c  6, 6, 6, 6, 6, 6, 6, 6, 6, 6, 6, 6, 6, 6, 6, 6, 6, 6, 6, 6, 6, 6, 6, 6, 6, 
c  6, 6, 6, 6, 6, 6, 6, 6, 6, 6, 6, 6, 6, 6, 6, 6, 6, 6, 6, 6, 6, 6, 6, 6] 
c  
p edge 100 300 2
e 1 12
e 1 16
e 1 23
e 1 35
e 1 74
e 1 98
e 2 11
e 2 32
e 2 59
e 2 60
e 2 75
e 2 77
e 3 14
e 3 47
e 3 55
e 3 78
e 3 90
e 3 91
e 4 42
e 4 46
e 4 64
e 4 67
e 4 71
e 4 84
e 5 26
e 5 70
e 5 88
e 5 90
e 5 97
e 5 99
e 6 13
e 6 30
e 6 45
e 6 55
e 6 73
e 6 84
e 7 18
e 7 23
e 7 48
e 7 58
e 7 68
e 7 77
e 8 21
e 8 32
e 8 61
e 8 66
e 8 72
e 8 76
e 9 22
e 9 33
e 9 42
e 9 48
e 9 51
e 9 94
e 10 19
e 10 37
e 10 41
e 10 44
e 10 68
e 10 76
e 11 29
e 11 52
e 11 65
e 11 70
e 11 96
e 12 36
e 12 59
e 12 85
e 12 88
e 12 97
e 13 20
e 13 30
e 13 49
e 13 81
e 13 89
e 14 15
e 14 24
e 14 58
e 14 82
e 14 87
e 15 38
e 15 42
e 15 56
e 15 72
e 15 79
e 16 27
e 16 52
e 16 55
e 16 79
e 16 86
e 17 25
e 17 28
e 17 35
e 17 81
e 17 93
e 17 96
e 18 26
e 18 37
e 18 46
e 18 53
e 18 93
e 19 31
e 19 42
e 19 52
e 19 63
e 19 80
e 20 35
e 20 66
e 20 68
e 20 80
e 20 84
e 21 36
e 21 41
e 21 72
e 21 78
e 21 99
e 22 59
e 22 69
e 22 86
e 22 94
e 22 99
e 23 29
e 23 34
e 23 36
e 23 64
e 24 40
e 24 48
e 24 51
e 24 66
e 24 68
e 25 61
e 25 73
e 25 81
e 25 82
e 25 92
e 26 43
e 26 53
e 26 54
e 26 71
e 27 31
e 27 32
e 27 49
e 27 94
e 27 95
e 28 47
e 28 54
e 28 58
e 28 80
e 28 92
e 29 37
e 29 45
e 29 64
e 29 99
e 30 37
e 30 65
e 30 91
e 30 100
e 31 40
e 31 78
e 31 87
e 31 90
e 32 70
e 32 80
e 32 87
e 33 39
e 33 56
e 33 57
e 33 93
e 33 98
e 34 52
e 34 60
e 34 63
e 34 89
e 34 95
e 35 61
e 35 74
e 35 78
e 36 54
e 36 67
e 36 82
e 37 44
e 37 96
e 38 41
e 38 45
e 38 68
e 38 85
e 38 88
e 39 48
e 39 53
e 39 54
e 39 57
e 39 83
e 40 75
e 40 85
e 40 88
e 40 94
e 41 54
e 41 61
e 41 84
e 42 56
e 42 75
e 43 55
e 43 64
e 43 67
e 43 70
e 43 84
e 44 45
e 44 50
e 44 69
e 44 100
e 45 75
e 45 100
e 46 63
e 46 64
e 46 76
e 46 85
e 47 53
e 47 62
e 47 83
e 47 88
e 48 52
e 48 90
e 49 62
e 49 76
e 49 87
e 49 90
e 50 51
e 50 60
e 50 85
e 50 93
e 50 98
e 51 73
e 51 79
e 51 83
e 52 60
e 53 72
e 53 100
e 54 100
e 55 69
e 55 89
e 56 73
e 56 77
e 56 88
e 57 74
e 57 89
e 57 94
e 57 96
e 58 82
e 58 89
e 58 96
e 59 64
e 59 77
e 59 99
e 60 71
e 60 74
e 61 95
e 61 99
e 62 63
e 62 79
e 62 81
e 62 98
e 63 84
e 63 92
e 65 73
e 65 78
e 65 80
e 65 97
e 66 87
e 66 94
e 66 97
e 67 79
e 67 97
e 67 98
e 68 96
e 69 81
e 69 86
e 69 90
e 70 74
e 70 86
e 71 77
e 71 91
e 71 93
e 72 73
e 72 92
e 74 91
e 75 83
e 75 97
e 76 81
e 76 100
e 77 82
e 78 95
e 79 80
e 82 87
e 83 91
e 83 92
e 85 89
e 86 93
e 86 95
e 91 92
e 95 98
n 2 2
n 4 2
n 5 1
n 7 2
n 8 1
n 12 1
n 18 2
n 20 2
n 24 2
n 27 2
n 28 2
n 29 1
n 30 1
n 33 2
n 35 2
n 38 1
n 39 2
n 43 1
n 44 1
n 46 2
n 48 2
n 49 2
n 50 1
n 52 2
n 55 1
n 69 1
n 70 1
n 71 2
n 73 2
n 79 1
n 81 1
n 82 1
n 83 2
n 88 1
n 89 1
n 94 2
n 95 2
n 96 2
n 97 1
n 100 1
